
Gurobi 10.0.1 (win64) logging started Thu Jul 13 17:24:29 2023

Set parameter LogFile to value "results/log/MetalMeca_deadline.log"
Gurobi Optimizer version 10.0.1 build v10.0.1rc0 (win64)

CPU model: AMD Ryzen 7 3700X 8-Core Processor, instruction set [SSE2|AVX|AVX2]
Thread count: 8 physical cores, 16 logical processors, using up to 16 threads

Optimize a model with 18677 rows, 45917 columns and 88357 nonzeros
Model fingerprint: 0x67de789c
Model has 1 quadratic constraint
Variable types: 0 continuous, 45917 integer (45373 binary)
Coefficient statistics:
  Matrix range     [1e+00, 1e+08]
  QMatrix range    [1e+00, 1e+00]
  QLMatrix range   [1e+00, 2e+04]
  Objective range  [1e+00, 1e+00]
  Bounds range     [1e+00, 1e+00]
  RHS range        [1e+00, 3e+08]
Presolve removed 948 rows and 40525 columns
Presolve time: 0.15s
Presolved: 17771 rows, 5433 columns, 77903 nonzeros
Variable types: 0 continuous, 5433 integer (4848 binary)

Root relaxation: objective 0.000000e+00, 1851 iterations, 0.03 seconds (0.06 work units)

    Nodes    |    Current Node    |     Objective Bounds      |     Work
 Expl Unexpl |  Obj  Depth IntInf | Incumbent    BestBd   Gap | It/Node Time

     0     0    0.00000    0  227          -    0.00000      -     -    0s
     0     0    0.00000    0  522          -    0.00000      -     -    1s
     0     0    0.00000    0  482          -    0.00000      -     -    1s
     0     0    0.00000    0  406          -    0.00000      -     -    1s
     0     0    0.00000    0  453          -    0.00000      -     -    1s
     0     0    0.00000    0  295          -    0.00000      -     -    3s
     0     0    0.00000    0  436          -    0.00000      -     -    3s
     0     0    0.00000    0  387          -    0.00000      -     -    3s
     0     0    0.00000    0  394          -    0.00000      -     -    4s
H    0     0                    272443.00000    0.00000   100%     -    4s
     0     0    0.00000    0  333 272443.000    0.00000   100%     -    4s
     0     0    0.00000    0  474 272443.000    0.00000   100%     -    5s
     0     0    0.00000    0  413 272443.000    0.00000   100%     -    6s
     0     0    0.00000    0  409 272443.000    0.00000   100%     -    6s
H    0     2                    270296.00000    0.00000   100%     -    7s
     0     2    0.00000    0  409 270296.000    0.00000   100%     -    7s
H   31    38                    270294.00000 3631.75885  98.7%   308   12s
H   33    38                    262128.00000 3631.75885  98.6%   291   12s
H   80    71                    260434.00000 3631.75885  98.6%   135   12s
H  122   106                    256678.00000 3631.75885  98.6%   111   13s
H  152   143                    253573.00000 3631.75885  98.6%   110   13s
H  158   143                    247862.00000 3631.75885  98.5%   109   13s
H  203   183                    245555.00000 3631.75885  98.5%  93.3   13s
H  204   183                    240100.00000 3631.75885  98.5%  92.9   13s
H  205   183                    237088.00000 3631.75885  98.5%  92.6   13s
H  252   217                    213078.00000 3631.75885  98.3%  82.9   14s
   566   497 16345.0000   60  354 213078.000 3631.75885  98.3%  52.4   15s
H 1296  1091                    213076.00000 3631.75885  98.3%  43.8   16s
H 2015  1443                    212232.00000 3631.75885  98.3%  43.1   19s
  2018  1445 68012.0000  177  245 212232.000 3631.75885  98.3%  43.0   20s
H 2018  1372                    212150.00000 3631.75885  98.3%  43.0   20s
H 2019  1305                    209409.00000 3631.75885  98.3%  43.0   20s
H 2021  1240                    208504.00000 3631.75885  98.3%  43.0   21s
H 2021  1178                    206019.00000 3631.75885  98.2%  43.0   21s
H 2022  1120                    206018.00000 3631.75885  98.2%  42.9   22s
H 2024  1065                    204828.00000 3631.75885  98.2%  42.9   24s
H 2027  1013                    179993.00000 3631.75885  98.0%  42.8   25s
H 2027   962                    179758.00000 3631.75885  98.0%  42.8   25s
H 2030   916                    178939.00000 3631.75885  98.0%  42.8   25s
H 2031   871                    178796.00000 3631.75885  98.0%  42.7   25s
  2038   879 3631.75885   12  321 178796.000 3631.75885  98.0%  62.7   31s
H 2110   879                    177667.00000 4509.00000  97.5%  61.2   32s
H 2112   836                    176485.00000 4509.00000  97.4%  61.1   32s
H 2145   820                    176091.00000 4509.00000  97.4%  61.5   32s
H 2152   780                    176014.00000 4509.00000  97.4%  61.7   32s
H 2187   772                    175281.00000 4509.00000  97.4%  61.9   32s
H 2191   737                    174916.00000 4509.00000  97.4%  61.9   32s
H 2192   704                    174475.00000 4509.00000  97.4%  61.8   32s
H 2193   673                    173349.00000 4509.00000  97.4%  61.8   32s
H 2616   904                    173343.00000 4509.00000  97.4%  60.2   34s
H 2618   876                    172220.00000 4509.00000  97.4%  60.3   34s
H 2622   848                    169564.00000 4509.00000  97.3%  60.2   34s
  2624   879 44341.0000   51  213 169564.000 4509.00000  97.3%  60.3   35s
H 3687  1536                    169562.00000 4509.00000  97.3%  48.5   39s
  3761  1619 94458.0000  116  114 169562.000 4509.00000  97.3%  48.0   40s
H 4711  2628                    169560.00000 4509.00000  97.3%  41.4   42s
H 4955  2642                    166363.00000 4509.00000  97.3%  40.0   42s
H 4957  2635                    160625.00000 4509.00000  97.2%  40.0   42s
H 4960  2609                    157841.00000 4509.00000  97.1%  40.0   42s
H 6028  3577                    157839.00000 4509.00000  97.1%  36.0   44s
  6157  3779 8867.00000   32  317 157839.000 4509.00000  97.1%  35.7   45s
H 7241  4540                    146600.00000 4509.00000  96.9%  32.8   48s
* 7928  4971             401    146006.00000 4509.00000  96.9%  31.6   49s
  8204  5077 91179.0000  167  127 146006.000 4509.00000  96.9%  31.3   50s
 11590  7609 41074.0022   46  236 146006.000 4553.00000  96.9%  29.0   55s
H11591  6810                    136873.00000 4553.00000  96.7%  29.0   55s
 14223  8721 77299.0000  127  187 136873.000 4553.00000  96.7%  26.5   61s
 16344 11076 128573.000  124  107 136873.000 4553.00000  96.7%  24.9   65s

Cutting planes:
  Learned: 16
  Gomory: 1
  Cover: 3
  Implied bound: 46
  MIR: 3
  Relax-and-lift: 3

Explored 19024 nodes (481700 simplex iterations) in 67.48 seconds (59.94 work units)
Thread count was 16 (of 16 available processors)

Solution count 10: 136873 146006 146600 ... 169564

Solve interrupted
Best objective 1.368730000000e+05, best bound 4.553000000000e+03, gap 96.6736%
Warning: variable name "b[job:0, stage:0, machine:18]" has a space
Warning: constraint name "precedence between 1,0 to 0,0 if x_[j,l,h,z,i]=1" has a space
Warning: to let Gurobi read it back, use rlp format
Warning: variable name "b[job:0, stage:0, machine:18]" has a space
Warning: constraint name "precedence between 1,0 to 0,0 if x_[j,l,h,z,i]=1" has a space
Warning: default variable names used to write mps file
Warning: default constraint names used to write mps file
